c
p cnf 81 361
-1 -6 11 0
6 -11 -76 0
1 -11 -77 0
-2 -6 12 0
6 -12 -78 0
2 -12 -79 0
-3 -6 13 0
6 -13 -80 0
3 -13 -81 0
-4 -6 14 0
6 -14 -76 0
4 -14 -77 0
-5 -6 15 0
6 -15 -78 0
5 -15 -79 0
-1 -7 16 0
7 -16 -80 0
1 -16 -81 0
-2 -7 17 0
7 -17 -76 0
2 -17 -77 0
-3 -7 18 0
7 -18 -78 0
3 -18 -79 0
-4 -7 19 0
7 -19 -80 0
4 -19 -81 0
-5 -7 20 0
7 -20 -76 0
5 -20 -77 0
-1 -8 21 0
8 -21 -78 0
1 -21 -79 0
-2 -8 22 0
8 -22 -80 0
2 -22 -81 0
-3 -8 23 0
8 -23 -76 0
3 -23 -77 0
-4 -8 24 0
8 -24 -78 0
4 -24 -79 0
-5 -8 25 0
8 -25 -80 0
5 -25 -81 0
-1 -9 26 0
9 -26 -76 0
1 -26 -77 0
-2 -9 27 0
9 -27 -78 0
2 -27 -79 0
-3 -9 28 0
9 -28 -80 0
3 -28 -81 0
-4 -9 29 0
9 -29 -76 0
4 -29 -77 0
-5 -9 30 0
9 -30 -78 0
5 -30 -79 0
-1 -10 31 0
10 -31 -80 0
1 -31 -81 0
-2 -10 32 0
10 -32 -76 0
2 -32 -77 0
-3 -10 33 0
10 -33 -78 0
3 -33 -79 0
-4 -10 34 0
10 -34 -80 0
4 -34 -81 0
-5 -10 35 0
10 -35 -76 0
5 -35 -77 0
12 16 -36 0
-12 -16 -36 0
-12 16 36 0
12 -16 36 0
16 -37 -78 0
12 -37 -79 0
12 16 -37 0
-12 -16 37 0
13 17 37 -38 0
-13 -17 37 -38 0
-13 17 -37 -38 0
13 -17 -37 -38 0
13 17 -37 38 0
-13 -17 -37 38 0
-13 17 37 38 0
13 -17 37 38 0
17 37 -39 0
13 37 -39 0
13 17 -39 0
-17 -37 39 0
-13 -37 39 0
-13 -17 39 0
14 18 39 -40 0
-14 -18 39 -40 0
-14 18 -39 -40 0
14 -18 -39 -40 0
14 18 -39 40 0
-14 -18 -39 40 0
-14 18 39 40 0
14 -18 39 40 0
18 39 -41 0
14 39 -41 0
14 18 -41 0
-18 -39 41 0
-14 -39 41 0
-14 -18 41 0
15 19 41 -42 0
-15 -19 41 -42 0
-15 19 -41 -42 0
15 -19 -41 -42 0
15 19 -41 42 0
-15 -19 -41 42 0
-15 19 41 42 0
15 -19 41 42 0
19 41 -43 0
15 41 -43 0
15 19 -43 0
-19 -41 43 0
-15 -41 43 0
-15 -19 43 0
20 43 -44 0
-20 -43 -44 0
20 -43 44 0
-20 43 44 0
20 43 -45 0
43 -45 -80 0
20 -45 -81 0
-20 -43 45 0
38 21 -46 0
-38 -21 -46 0
-38 21 46 0
38 -21 46 0
21 -47 -76 0
38 -47 -77 0
38 21 -47 0
-38 -21 47 0
40 22 47 -48 0
-40 -22 47 -48 0
-40 22 -47 -48 0
40 -22 -47 -48 0
40 22 -47 48 0
-40 -22 -47 48 0
-40 22 47 48 0
40 -22 47 48 0
22 47 -49 0
40 47 -49 0
40 22 -49 0
-22 -47 49 0
-40 -47 49 0
-40 -22 49 0
42 23 49 -50 0
-42 -23 49 -50 0
-42 23 -49 -50 0
42 -23 -49 -50 0
42 23 -49 50 0
-42 -23 -49 50 0
-42 23 49 50 0
42 -23 49 50 0
23 49 -51 0
42 49 -51 0
42 23 -51 0
-23 -49 51 0
-42 -49 51 0
-42 -23 51 0
44 24 51 -52 0
-44 -24 51 -52 0
-44 24 -51 -52 0
44 -24 -51 -52 0
44 24 -51 52 0
-44 -24 -51 52 0
-44 24 51 52 0
44 -24 51 52 0
24 51 -53 0
44 51 -53 0
44 24 -53 0
-24 -51 53 0
-44 -51 53 0
-44 -24 53 0
45 25 53 -54 0
-45 -25 53 -54 0
-45 25 -53 -54 0
45 -25 -53 -54 0
45 25 -53 54 0
-45 -25 -53 54 0
-45 25 53 54 0
45 -25 53 54 0
25 53 -55 0
45 53 -55 0
45 25 -55 0
-25 -53 55 0
-45 -53 55 0
-45 -25 55 0
48 26 -56 0
-48 -26 -56 0
-48 26 56 0
48 -26 56 0
26 -57 -78 0
48 -57 -79 0
48 26 -57 0
-48 -26 57 0
50 27 57 -58 0
-50 -27 57 -58 0
-50 27 -57 -58 0
50 -27 -57 -58 0
50 27 -57 58 0
-50 -27 -57 58 0
-50 27 57 58 0
50 -27 57 58 0
27 57 -59 0
50 57 -59 0
50 27 -59 0
-27 -57 59 0
-50 -57 59 0
-50 -27 59 0
52 28 59 -60 0
-52 -28 59 -60 0
-52 28 -59 -60 0
52 -28 -59 -60 0
52 28 -59 60 0
-52 -28 -59 60 0
-52 28 59 60 0
52 -28 59 60 0
28 59 -61 0
52 59 -61 0
52 28 -61 0
-28 -59 61 0
-52 -59 61 0
-52 -28 61 0
54 29 61 -62 0
-54 -29 61 -62 0
-54 29 -61 -62 0
54 -29 -61 -62 0
54 29 -61 62 0
-54 -29 -61 62 0
-54 29 61 62 0
54 -29 61 62 0
29 61 -63 0
54 61 -63 0
54 29 -63 0
-29 -61 63 0
-54 -61 63 0
-54 -29 63 0
55 30 63 -64 0
-55 -30 63 -64 0
-55 30 -63 -64 0
55 -30 -63 -64 0
55 30 -63 64 0
-55 -30 -63 64 0
-55 30 63 64 0
55 -30 63 64 0
30 63 -65 0
55 63 -65 0
55 30 -65 0
-30 -63 65 0
-55 -63 65 0
-55 -30 65 0
58 31 -66 0
-58 -31 -66 0
-58 31 66 0
58 -31 66 0
31 -67 -80 0
58 -67 -81 0
58 31 -67 0
-58 -31 67 0
60 32 67 -68 0
-60 -32 67 -68 0
-60 32 -67 -68 0
60 -32 -67 -68 0
60 32 -67 68 0
-60 -32 -67 68 0
-60 32 67 68 0
60 -32 67 68 0
32 67 -69 0
60 67 -69 0
60 32 -69 0
-32 -67 69 0
-60 -67 69 0
-60 -32 69 0
62 33 69 -70 0
-62 -33 69 -70 0
-62 33 -69 -70 0
62 -33 -69 -70 0
62 33 -69 70 0
-62 -33 -69 70 0
-62 33 69 70 0
62 -33 69 70 0
33 69 -71 0
62 69 -71 0
62 33 -71 0
-33 -69 71 0
-62 -69 71 0
-62 -33 71 0
64 34 71 -72 0
-64 -34 71 -72 0
-64 34 -71 -72 0
64 -34 -71 -72 0
64 34 -71 72 0
-64 -34 -71 72 0
-64 34 71 72 0
64 -34 71 72 0
34 71 -73 0
64 71 -73 0
64 34 -73 0
-34 -71 73 0
-64 -71 73 0
-64 -34 73 0
65 35 73 -74 0
-65 -35 73 -74 0
-65 35 -73 -74 0
65 -35 -73 -74 0
65 35 -73 74 0
-65 -35 -73 74 0
-65 35 73 74 0
65 -35 73 74 0
35 73 -75 0
65 73 -75 0
65 35 -75 0
-35 -73 75 0
-65 -73 75 0
-65 -35 75 0
76 77 78 0
-76 77 78 0
-76 -77 78 0
-76 77 -78 0
76 -77 78 0
76 77 -78 0
76 -77 -78 0
79 80 81 0
-79 80 81 0
-79 -80 81 0
-79 80 -81 0
79 -80 81 0
79 80 -81 0
79 -80 -81 0
11 -36 -46 0
-11 -36 -46 0
-11 36 -46 0
-11 -36 46 0
11 36 -46 0
11 -36 46 0
11 36 46 0
56 -66 -68 0
-56 -66 -68 0
-56 66 -68 0
-56 -66 68 0
56 66 -68 0
56 -66 68 0
56 66 68 0
70 72 -74 0
-70 72 -74 0
-70 -72 -74 0
-70 72 74 0
70 -72 -74 0
70 72 74 0
70 -72 74 0
75 -72 74 0
